data;

param n:=21;
param p:=4;
param r:=[1] 0 [2] 0 [3] 1 [4] 0 [5] 5 [6] 19 [7] 17 [8] 19 [9] 29 [10] 19 [11] 17 [12] 42 [13] 5 [14] 5 [15] 37 [16] 14 [17] 43 [18] 49 [19] 65 [20] 10 [21] 78 ;
param w:=[1] 21 [2] 3 [3] 83 [4] 70 [5] 8 [6] 18 [7] 41 [8] 78 [9] 61 [10] 61 [11] 63 [12] 31 [13] 16 [14] 55 [15] 8 [16] 5 [17] 4 [18] 7 [19] 45 [20] 27 [21] 78 ;

end;
